words_train/words_315_SAT.qaiger
aag 69 24 0 1 45
34
6
40
24
32
26
30
28
36
20
46
12
2
44
10
14
38
8
22
4
42
48
18
16
138
50 26 15
52 37 34
54 52 39
56 54 43
58 56 41
60 58 45
62 60 47
64 61 46
66 65 63
68 67 51
70 66 50
72 18 7
74 73 55
76 20 9
78 77 40
80 53 38
82 81 79
84 82 75
86 76 41
88 22 11
90 88 43
92 91 87
94 92 85
96 89 42
98 24 13
100 99 44
102 101 97
104 102 59
106 104 95
108 59 44
110 109 98
112 110 61
114 113 107
116 114 71
118 117 69
120 28 17
122 62 48
124 63 49
126 125 123
128 127 120
130 126 121
132 131 129
134 133 119
136 132 118
138 137 135
i0 2 y[0]
i1 2 z[2]
i2 2 y[3]
i3 1 x[3]
i4 1 x[7]
i5 1 x[4]
i6 1 x[6]
i7 1 x[5]
i8 2 y[1]
i9 1 x[1]
i10 2 y[6]
i11 2 z[5]
i12 2 z[0]
i13 2 y[5]
i14 2 z[4]
i15 2 z[6]
i16 2 y[2]
i17 2 z[3]
i18 1 x[2]
i19 2 z[1]
i20 2 y[4]
i21 2 y[7]
i22 1 x[0]
i23 2 z[7]
o0 bv[0]
c
simplified
  >
    xor
      2 y
      1
    and
      invert
        2 z
      << 2
        1 x
