words_train/words_315_SAT.qaiger.qdimacs
p cnf 69 136
a 9 10 11 12 13 14 15 16 0
e 1 2 3 4 5 6 7 8 17 18 19 20 21 22 23 24 25 26 27 28 29 30 31 32 33 34 35 36 37 38 39 40 41 42 43 44 45 46 47 48 49 50 51 52 53 54 55 56 57 58 59 60 61 62 63 64 65 66 67 68 69 0
-13 7 25 0
13 -25 0
-7 -25 0
18 -17 26 0
-18 -26 0
17 -26 0
-26 19 27 0
26 -27 0
-19 -27 0
-27 21 28 0
27 -28 0
-21 -28 0
-28 20 29 0
28 -29 0
-20 -29 0
-29 22 30 0
29 -30 0
-22 -30 0
-30 23 31 0
30 -31 0
-23 -31 0
30 -23 32 0
-30 -32 0
23 -32 0
32 31 33 0
-32 -33 0
-31 -33 0
33 25 34 0
-33 -34 0
-25 -34 0
-33 -25 35 0
33 -35 0
25 -35 0
-9 3 36 0
9 -36 0
-3 -36 0
36 27 37 0
-36 -37 0
-27 -37 0
-10 4 38 0
10 -38 0
-4 -38 0
38 -20 39 0
-38 -39 0
20 -39 0
26 -19 40 0
-26 -40 0
19 -40 0
40 39 41 0
-40 -41 0
-39 -41 0
-41 37 42 0
41 -42 0
-37 -42 0
-38 20 43 0
38 -43 0
-20 -43 0
-11 5 44 0
11 -44 0
-5 -44 0
-44 21 45 0
44 -45 0
-21 -45 0
45 43 46 0
-45 -46 0
-43 -46 0
-46 42 47 0
46 -47 0
-42 -47 0
44 -21 48 0
-44 -48 0
21 -48 0
-12 6 49 0
12 -49 0
-6 -49 0
49 -22 50 0
-49 -50 0
22 -50 0
50 48 51 0
-50 -51 0
-48 -51 0
-51 29 52 0
51 -52 0
-29 -52 0
-52 47 53 0
52 -53 0
-47 -53 0
29 -22 54 0
-29 -54 0
22 -54 0
54 -49 55 0
-54 -55 0
49 -55 0
-55 30 56 0
55 -56 0
-30 -56 0
56 53 57 0
-56 -57 0
-53 -57 0
-57 35 58 0
57 -58 0
-35 -58 0
58 34 59 0
-58 -59 0
-34 -59 0
-14 8 60 0
14 -60 0
-8 -60 0
-31 -24 61 0
31 -61 0
24 -61 0
31 24 62 0
-31 -62 0
-24 -62 0
62 61 63 0
-62 -63 0
-61 -63 0
63 -60 64 0
-63 -64 0
60 -64 0
-63 60 65 0
63 -65 0
-60 -65 0
65 64 66 0
-65 -66 0
-64 -66 0
66 59 67 0
-66 -67 0
-59 -67 0
-66 -59 68 0
66 -68 0
59 -68 0
68 67 69 0
-68 -69 0
-67 -69 0
69 0
